5173
1500000
999145
999145
999145
999145
999145
999145
999145
999145
999145
999145
999145
999145
999145
999145
999145
997690
997690
997690
997690
997690
997690
997690
997690
997690
997690
997690
997690
997690
997690
997690
997690
997690
997690
997690
997690
997263
997263
997263
997263
997263
992558
992558
992558
992558
992558
992558
992558
990737
990737
990737
990737
990737
990737
990737
990737
990737
990737
990737
990737
990737
990737
990542
990542
990542
990542
990542
990542
989904
989904
989904
989904
989904
989904
989904
989904
989904
989904
989904
989904
989904
989904
989904
989904
989904
989904
989904
987800
987800
987800
987800
987800
987800
987800
987800
987800
987706
987706
987706
987706
987706
987706
987706
987706
986960
984220
984220
984220
984220
984220
984220
984220
984220
984220
984220
984220
984220
984220
984220
984220
982988
980599
980599
980599
980599
980599
980599
980599
980338
980338
980338
980338
980338
980338
980338
980338
980338
980338
980338
980338
980338
980338
980338
980338
977031
977031
977031
977031
977031
977031
977031
977031
977031
977031
977031
977031
977031
977031
977031
977031
977031
977031
971328
971328
971328
971328
971328
971328
971328
971328
971328
971328
971328
971328
971328
971328
971328
971328
971328
971328
966075
966075
966075
966075
966075
966075
966075
966075
966075
966075
966075
966075
966075
966075
966075
966075
966075
966075
966075
964063
963401
963401
963401
963401
963401
963401
963401
963401
963401
963401
963401
963401
963401
963401
963401
963401
963401
962136
962136
962066
962066
962066
962066
962066
962066
962066
962066
961338
961088
961088
961088
961088
961088
961088
961088
961088
961088
961088
961088
961088
961088
961088
961088
961088
961088
956340
956340
956340
956340
955948
955948
955948
955025
955025
955025
955025
954905
954905
954905
954905
954905
954518
954518
954518
954518
954518
954518
954518
954518
954518
954518
954518
954518
954518
954518
954518
954518
954518
954518
954518
951926
951926
951926
951926
951926
951926
951926
951926
948462
948462
948462
948462
948462
948462
948462
948462
948462
948462
948462
948462
947392
947392
945975
945975
944587
943333
943333
943333
943333
943333
943333
943333
943333
943333
943333
943333
943333
943333
943333
943333
943333
943333
943333
940437
940437
940437
940437
940437
940437
940437
940437
940437
940437
940437
940437
940437
940437
940437
940437
938721
938721
938721
938721
938721
936488
934905
934905
934905
934905
934905
932489
932489
932489
932489
932489
932489
932489
932489
932489
932489
932489
931494
931494
931494
931494
931494
931494
931494
931494
931494
931494
931494
931494
931494
926088
926088
922327
922327
922327
922327
922327
922327
922327
922327
922327
922327
922137
922137
922137
922137
922137
922137
922137
922137
922137
922137
922137
922137
922137
922137
922137
922137
922137
922137
920044
920044
920044
920044
920044
920044
920044
920044
920044
920044
920044
919278
919278
919278
919278
919278
919278
919278
919278
919278
919278
919278
919278
919278
919278
919278
919278
919278
917114
917114
917114
917114
917114
917114
917114
917114
917114
914856
914856
914856
914856
914856
914856
914786
914786
914786
914786
914786
914786
914786
914786
914786
914786
914786
914786
914786
914786
914185
914185
914185
914185
914185
914185
914185
914185
914185
914185
914185
914185
914185
914185
914185
914185
913592
913592
913592
913592
913592
913592
913592
913592
913592
913592
913592
913592
913592
913592
913592
913592
912936
904148
904148
904148
904148
904148
904148
904148
904148
904148
904148
904148
904148
904148
903785
903785
903785
903785
901496
901496
901496
901496
901496
901496
901496
901496
901496
901496
901496
901496
901496
901496
901496
901496
901496
901496
901496
901496
901113
901113
901113
901113
901113
901113
901113
901113
901113
901113
901113
901113
901113
900875
900875
900875
900875
900875
900875
900875
900094
900094
900094
900094
900094
900094
900094
900094
900094
900094
900094
900094
894382
894382
894382
894382
894382
894382
894382
894382
894382
894382
894382
894382
894382
894382
894382
894382
891501
891501
891501
889715
889715
889715
889715
889715
889715
889715
889715
889715
889715
889715
889715
889715
889715
887109
887109
887109
887109
887109
887109
887109
887109
887109
887109
883800
883800
883800
883800
883800
883800
883800
883800
883800
883800
883800
883800
883800
883800
883800
883800
883800
882988
882988
882988
882988
882988
882988
882988
882988
882988
882988
882988
882485
882485
880016
879819
879819
879819
879819
879819
879819
879819
879819
879819
879819
879819
879819
879819
879819
879819
879819
879819
878836
878836
878836
878836
878836
878836
878836
878836
878836
878836
878836
878836
878836
877225
877225
877225
877225
877225
877225
877225
877225
877225
877225
877225
876586
876586
876586
876586
876586
876586
876586
876586
876586
876586
876586
876586
876586
876586
876586
876586
876586
876586
876586
872969
872969
872969
872969
872969
872969
872969
872969
872969
872969
872969
872969
872969
872969
872969
872969
872969
869366
869366
869366
869366
869366
869366
869366
869366
869366
867058
867058
867058
867058
867058
867058
867058
867058
867058
867058
867058
867058
867058
866160
866160
866160
863878
863878
863878
863878
863878
863878
863878
863878
863878
863878
863826
863826
863826
863826
863826
863826
863826
863826
863826
863826
863826
863826
863826
863826
863826
863826
863826
863826
861133
861133
861133
861133
861133
861133
861133
861133
861133
861133
860778
857757
857757
857757
857745
857745
857745
857745
857745
857745
857745
857745
857745
857745
857745
857745
857745
857745
857745
857745
857745
857745
857745
855855
855855
855855
855855
855855
855855
855855
855855
855855
855855
855855
855855
855855
855855
855855
855855
854779
854779
852950
852950
852950
852950
852950
852950
852950
852950
852746
852746
852746
852728
852728
852728
852728
852728
852728
852728
852728
852728
852728
852728
852728
852728
852728
852728
852728
852728
852728
851292
851292
851292
851292
851292
848912
848912
848912
848912
848912
848912
848912
848912
848912
848912
848912
848912
848912
848912
848912
848912
847758
847758
847758
847758
847758
847758
847758
847758
847758
847758
847758
847758
847758
847758
847758
847758
847758
846705
846705
836309
836309
836309
836130
836130
836130
833320
833320
833320
833320
833320
833320
833320
833320
833320
833320
833320
833320
833320
833320
833320
833320
833320
828794
828794
828794
828794
828794
828794
828794
828794
828794
828794
828794
828794
828794
828794
828794
828794
827701
827701
827701
827701
827701
827701
827701
827701
827701
827701
827701
827701
827701
827701
827701
824578
824578
824578
824578
824487
824487
824487
824487
824487
824487
824487
824487
824487
824487
824487
824487
824487
824487
824275
823483
823483
823483
823483
823483
823483
823483
820160
820160
820160
820160
820160
820160
820160
820160
820160
820160
820160
820160
820160
820160
820160
813384
813384
813384
813384
813384
813384
813384
813384
813384
813384
813384
813384
813384
813384
813384
813384
813384
813384
812653
812653
812653
812653
812653
812653
812653
812653
812653
812653
812653
812653
812653
812653
812653
812606
810968
810968
810968
810968
810968
810968
810968
810968
810968
810968
810968
810968
810968
810968
810968
810968
810968
810968
810968
810767
810767
810767
810767
808931
808931
808931
808931
808931
808931
808931
808931
808931
808931
808931
808931
808931
808931
808931
808931
807551
806640
806640
806640
806640
806640
806640
806640
806640
806640
806640
806640
806640
806640
806640
806640
806640
803823
803823
803823
803823
803823
803823
803823
803823
803823
803823
802715
802715
802715
802715
802715
802715
802715
802715
802715
802715
802715
802715
802715
802715
802715
802715
802715
802715
802715
802715
802564
802564
802564
802564
802564
802564
800951
800951
800951
800951
800951
800951
800951
800050
800050
800050
800050
800050
800050
800050
800050
797683
797683
797683
797683
797683
797683
797683
790943
790943
790943
790943
790943
790943
790943
790943
790943
790943
790943
790943
790943
790943
790943
790943
790943
790943
789856
789856
789856
789856
789856
789210
789210
787890
787890
787890
787890
787890
787890
783513
783513
783513
782754
781754
781754
781754
781754
781754
781754
781754
781754
781754
781754
780209
780209
780209
780209
779168
779168
779168
779168
779168
779168
778396
778396
778396
778396
778396
778396
778396
778396
778396
778396
778396
778396
778396
778396
778396
778396
778396
777956
777956
777956
777956
777956
777956
777956
777956
777956
777956
777956
777956
777956
777590
777590
777590
777590
777590
777590
777590
777590
777590
777590
777590
777590
777590
777590
777590
777590
777590
777590
777173
777173
777173
777173
777173
777173
777173
777173
777173
777173
777173
777173
774629
774629
774629
774629
774629
774629
774629
774629
774629
774629
774629
772958
771198
771198
771198
771198
771198
771198
771198
771198
768200
768200
768200
768200
768200
768200
768200
768200
768200
768200
760509
760509
760509
760509
760509
760509
760509
760509
760509
760509
760509
760509
759771
759771
759771
759771
758058
758058
758058
758058
758058
758058
758058
758058
758058
758058
758058
758058
758058
757535
757535
757535
757535
757535
757535
757535
757535
757535
757535
757535
757535
757535
757535
757535
757535
757535
757535
757535
757535
757143
757143
757143
757143
757143
757143
757143
757143
757143
757143
757143
757143
757143
757143
757143
756678
756678
756678
756678
756678
756632
756632
756632
756632
756632
756632
756632
756632
755561
755561
755561
755561
755561
755561
755561
755561
755561
755561
755561
755149
755149
753586
753586
753586
753586
753586
753586
753586
753586
753586
753586
753586
753586
753586
753586
753586
753586
753586
753586
753201
747218
747218
747218
747218
747218
747218
747218
747218
747218
747218
747218
747218
747218
743030
743030
743030
742540
742540
742540
742540
742540
742540
742540
742540
742540
742540
742540
742540
742540
734478
734478
734478
734478
734478
734478
734478
734478
734478
734478
734478
734478
719404
719404
719404
719404
715982
715982
715982
715982
715982
715982
715591
715591
715591
711914
711914
709096
709096
709096
709096
709096
709096
709096
709096
709096
709096
709096
709096
709096
709096
709096
707171
700326
700326
700326
700326
700326
700326
700326
700326
700326
699800
699800
699800
699800
699800
699800
699800
699800
699800
699800
699800
699800
699800
699800
699800
699800
699800
699800
699249
699249
699249
699249
699249
699249
699249
699249
699249
699249
699249
699249
699249
699249
699249
699249
699249
696475
696475
696475
696475
696475
696475
696475
696475
696475
696475
696475
696475
696475
696475
696475
696475
696475
696475
696475
695475
695475
695475
695475
695475
695475
695475
695475
695475
695475
695475
695475
695475
695475
695475
695475
695475
694885
690339
690339
690339
690339
690339
690339
690339
690339
690339
690339
690339
690339
690339
690339
690339
690339
684088
684088
684088
684088
684088
684088
684088
682611
679077
679077
679077
679077
679077
679077
679077
679077
679077
679077
677545
677545
677545
677545
677545
677545
677545
677545
676615
676615
676615
676615
676615
676615
676615
676615
676615
676615
676615
676615
676615
676615
676615
676615
676615
676615
676615
676316
676316
676316
676316
676316
676316
676316
676316
676316
676316
676316
676316
676316
676316
676316
676316
676316
669504
669504
669504
669504
669504
669504
669504
669504
669504
669504
669504
669426
669426
669426
669426
669426
669426
669426
669426
669426
669426
669426
669426
669426
669426
669426
669426
669426
669426
669426
668059
668059
668059
665107
665107
665107
665107
665107
665107
665107
665107
665107
665107
665107
665107
665107
665107
665107
665107
665107
665107
664974
664974
664974
664974
664974
664974
664974
664974
664974
664974
664974
664974
664974
664974
664974
664974
664974
659635
659635
659635
659635
659635
659635
659635
659158
659158
659158
659158
659158
659158
659158
659158
649950
649950
649950
649950
649950
649950
649950
649950
649950
649950
649950
649950
649950
649950
649950
649950
648264
648264
648264
648264
648264
648264
648264
648264
648264
647848
647848
647848
645023
645023
645023
645023
645023
645023
645023
645023
645023
645023
643034
643034
643034
643034
643034
643034
643034
643034
643034
643034
643034
643034
643034
633206
633206
633206
633206
633206
631457
631457
631457
631457
631457
631457
631457
631457
631457
631457
631201
631201
631201
631201
631201
631201
631201
628745
628745
628745
628745
628745
628745
628745
628745
628745
628745
628745
622048
622048
622048
622048
622048
622048
622048
622048
622048
622048
622048
621336
621336
621336
621336
621336
621336
621336
621336
621336
621336
621336
621336
621336
621336
621336
620134
620134
620134
620134
620134
620134
620134
620134
620134
620134
620134
620134
620134
620134
618699
618699
618699
618699
618699
618699
618699
618699
618699
618699
618699
618699
618217
618217
618217
618217
618217
618217
618217
618217
618217
618217
618217
618217
618217
618217
618217
618217
618217
616224
616224
616224
616224
616224
616224
616224
616224
616224
616224
616224
616224
616224
616224
616224
616224
616224
616224
616224
614503
614503
614503
614503
614503
614503
614436
614436
614436
614436
614436
614436
614436
614436
614436
614436
614436
614436
614436
614374
614374
614374
614374
614374
614374
614374
614374
614374
614374
614374
614374
614374
614374
614374
614374
614374
613996
613996
613996
613996
613996
613996
613996
613996
613996
613996
613996
613996
613996
613996
613476
613476
613476
613476
613476
613476
613476
613476
613476
613476
613476
613476
613476
613476
613476
613476
613476
612945
612945
612945
612945
612945
612945
612945
612945
612945
612945
612945
612945
612945
612945
612945
612945
612945
612945
612945
612056
612056
612056
612056
612056
612056
612056
612056
609900
609900
609900
609900
609900
609900
609900
609900
609900
609900
609900
609900
609900
609900
609900
609900
609900
609900
609900
608164
608164
608164
608164
608164
608164
608164
608164
608164
608164
607545
607545
607545
607545
607545
607545
607545
607545
607545
604295
601459
601459
601459
601459
601459
601459
601459
601459
601459
601459
601459
601459
600087
599594
599594
599594
597319
594649
594649
594649
594649
593436
593436
593436
593436
593436
592703
592703
592703
592703
592703
592703
592703
592703
592703
592703
592703
592176
592176
592176
592176
592176
592176
592176
592176
592176
592176
591756
591756
591756
591756
591756
591756
591211
591211
591211
591211
591211
591211
591211
591211
591211
591211
591211
590030
590030
590030
590030
590030
590030
590030
590030
590030
588967
588967
588967
588967
588967
588967
588967
588967
588967
582543
582543
582543
582543
582543
582543
582543
582543
582543
582543
582543
582543
582543
582543
582543
582543
582543
582543
581278
581278
581278
581278
581278
581278
581278
581278
581278
581278
581278
581278
581278
581278
580875
580875
580875
580875
580875
580875
580789
580789
580789
580789
580789
580789
580191
580191
580191
580191
580191
580019
580019
580019
580019
580019
580019
580019
579582
579582
579582
579582
579582
579582
579582
579582
579582
579582
579582
579582
579582
579313
579313
579313
579313
579313
579313
579313
579313
579313
579313
579313
579313
579313
579313
579313
578660
578660
578660
578660
578660
578660
578660
578660
578660
578660
578660
578660
578660
578660
578660
578660
578660
576741
576741
576741
576741
576741
574900
574900
574900
574900
574900
574900
574900
574900
574900
574900
574900
574900
574900
574900
574900
574900
571278
571278
571278
571278
571278
571278
571278
571278
571278
571278
571278
571278
571278
571278
571278
571278
571278
569089
569089
569089
569089
569089
569089
569089
569089
569089
569089
569089
569089
569089
569089
569089
569089
569089
569089
566920
566920
566920
566920
566920
566047
566047
566047
566047
565787
565787
565787
565787
565787
565787
565787
565787
565787
565787
565787
565787
565775
565377
565377
565377
565377
565377
565377
565377
564682
564682
564682
564682
564682
564682
564682
564682
564682
564682
564682
564682
562166
562166
559976
559976
559767
559767
559767
559767
559767
559767
559767
559767
559767
559767
559767
559767
559767
559767
559767
559767
559767
559767
559767
558140
557161
557161
557161
557161
557161
557161
557161
557161
557161
557161
557161
557161
557161
557161
557161
557161
555283
555283
555283
555283
555283
553415
553415
553415
553415
553415
553415
553415
553415
553415
553415
553415
553415
550230
550230
550230
550230
550230
550230
550230
550230
550230
550230
550230
550230
550230
550230
550230
550230
550230
550230
550230
550230
548119
548119
547711
547711
547711
547711
547711
547711
547711
547711
547711
547711
547711
547711
547711
547711
547711
547711
547711
547711
547711
547711
545854
545854
545854
545854
545854
545854
545854
545583
545583
545583
545583
545583
545583
545583
545583
545583
545583
545583
545583
545583
545583
545583
545583
545583
541672
541672
541672
541672
541672
541672
541489
541489
541489
541489
541489
541489
541489
541489
541489
541489
541489
541489
541489
541489
541464
541464
541464
541464
541464
541464
541464
541464
541464
541464
541464
541464
541464
541464
541464
541464
541464
541464
541464
541177
541177
541177
541177
540169
540169
540169
540169
540169
540169
540169
540169
540169
540169
540169
540169
540169
540169
540169
540169
540169
540169
540169
538020
538020
537159
537159
537159
537159
537159
537159
537159
537159
537159
537159
537159
537159
537159
537159
537159
537159
534464
534464
534464
534464
534464
534464
534464
534464
530858
530858
530858
530858
530858
530858
530858
530858
530858
530858
530858
530858
530858
530858
530858
530858
528987
528987
528987
528987
528987
528987
528987
528987
528987
528987
528987
528987
528987
528987
528987
528987
528987
528987
528987
528987
528905
527750
527750
527750
527750
527750
527750
527750
527750
527750
527750
527647
527647
527647
527647
527513
527513
527513
527513
527513
527513
527513
527513
527513
527513
527513
527513
527513
527513
527513
526704
526704
526704
526704
526704
526704
526704
526704
526704
526704
526704
526704
526704
526704
525447
525447
525447
525447
525447
525447
525447
525447
525447
524734
524734
524734
524137
524137
524137
524137
524137
524137
524137
524137
524137
518497
518497
518497
518497
518497
518497
518497
518497
518497
518497
518497
518497
518497
518497
518497
518497
518497
518497
518497
518497
517328
517328
517328
517328
517328
517328
517328
517328
517328
517328
517328
517328
517328
517328
517328
517328
517328
517328
517328
515867
515867
515867
515867
515867
515867
515867
515867
515867
515867
515867
515867
515867
515752
515752
515752
515752
515752
515752
515752
515752
515752
515752
515752
515752
515752
515752
515752
515752
515752
515752
515752
513510
513510
508698
508698
508019
508019
507592
507592
507592
507592
507592
507592
507592
507592
507592
507592
507592
507592
507592
507592
507592
507592
507592
507592
507592
503694
503694
503694
503694
503694
503694
503694
503694
503694
503694
503694
503694
503694
503694
503520
503520
503520
503520
503520
503520
503520
503520
503520
503520
503520
503520
503520
503520
503520
503520
502320
502320
502320
502320
502320
502320
502320
502320
502320
502320
502320
502320
502320
502320
499030
499030
499030
499030
499030
499030
499030
499030
499030
499030
499030
499030
499030
499030
499030
499030
499030
499030
499030
499030
497007
497007
497007
497007
497007
497007
497007
497007
497007
497007
497007
497007
497007
494875
494875
494875
494875
494875
493908
493908
493908
492692
492692
492692
492692
492692
492692
492692
492692
492321
492321
492321
489857
489857
489857
489857
489857
489857
488064
488064
488064
488064
488064
488064
488064
488064
487451
487451
487451
487451
487451
481983
481983
481983
481983
481983
481983
481983
481983
481983
481983
481983
481983
481983
481712
481712
481712
481712
481712
481712
481712
481712
481712
481712
481712
481712
481712
478785
478785
478785
478785
478660
478660
478660
478660
478142
478142
478142
478142
478142
478142
478142
478142
478142
478142
478142
478142
478142
478142
478142
478142
478142
478142
478142
471586
471586
471586
471586
471586
471586
471586
467942
465183
465183
465183
465183
465183
464186
464186
464186
464186
464186
464186
464186
464186
464186
464186
464186
464186
464186
464186
464186
464186
461524
461524
461524
461524
461524
461524
461524
461524
461524
461524
461524
461524
461524
461524
458042
458042
458042
458042
458042
458042
458042
458042
458042
458042
458042
458042
458042
458042
458042
458042
458042
458042
457752
457752
457752
457752
457752
457752
457033
457033
457033
455836
450776
450776
450776
444436
444436
444436
444436
444436
444436
441138
441138
441138
441138
441138
441138
441138
441138
441138
441138
441138
441138
441138
441138
441138
441138
441138
441138
441138
439926
439926
439926
439926
439926
439926
439926
439926
439926
439926
439926
439926
439926
439926
439926
439926
439926
438846
438846
438846
438846
438846
438846
438846
438846
438846
438846
438846
438846
437616
437616
437616
437616
437616
437616
437616
437616
437616
437616
434612
434612
434612
434612
434612
434612
434612
434612
434612
434612
434612
434612
434612
434612
434612
434612
434612
434612
434612
434578
434578
434578
434578
434578
434578
434578
434578
434578
434578
434578
434578
434578
434578
434578
434578
427146
427146
427146
427146
427146
427146
427146
427146
427146
427146
427146
427146
427146
427146
427146
425625
425625
425625
425625
425625
425625
425625
425625
423244
423244
419565
419565
419565
419565
419565
419565
419565
419565
419565
419565
419565
419565
419565
419565
419565
417838
417838
417838
417838
417838
417838
417838
417838
417838
417820
417820
417820
417820
417820
417820
416007
416007
416007
416007
416007
416007
416007
416007
416007
416007
416007
416007
415489
411840
411840
411840
411840
411840
411840
411266
411266
411266
390013
390013
390013
390013
390013
390013
390013
389351
389351
389351
389351
389351
389351
389351
389351
389351
389351
389351
389351
389351
389351
389351
377463
377463
377463
377463
377463
377463
377463
377463
377463
377463
377463
377463
377463
377463
377463
377371
377371
377371
377371
377371
377371
377371
377371
377371
377371
377371
377371
377371
377371
377371
376833
376833
376833
376833
376833
376833
376833
376833
376833
376833
376318
376318
376318
376318
376318
376318
376318
376318
376318
376318
376318
376318
376318
376318
376039
376039
376039
376039
376039
376039
376039
376039
376039
376039
376039
376039
376039
376039
373256
373256
373256
373256
373256
373256
373256
373256
373256
373256
373256
373256
373256
373256
371597
371597
371597
371597
371597
371597
371597
367664
367664
367664
367664
367664
367664
367664
367664
367664
367664
367664
367664
367664
367664
367664
367664
367664
367664
364731
364731
364731
364731
364731
364731
364731
364731
364731
364731
364731
364731
364731
364731
364731
357756
357756
357756
357756
357756
357756
355811
355811
355811
355811
355811
355811
355811
355811
355811
355811
355811
355811
350373
350373
350373
350373
350373
350373
350373
350373
350373
350373
350373
350373
350373
350373
350373
350373
350373
350373
347908
347908
347908
347908
347908
347908
347908
347908
347908
347908
347908
347908
347908
347908
344910
344910
344910
344910
344910
344910
344910
344910
344767
344767
344767
344767
344767
344767
344767
344767
344767
344767
344767
344767
344767
340644
340644
340644
340644
340644
337735
337735
337735
337735
337735
337735
337735
337735
337735
337735
337735
337735
337735
337735
337735
337735
337735
337735
337735
337735
336843
336843
336843
336843
336843
336843
336843
336843
336843
336843
336843
336843
336172
336172
336172
336172
336172
336172
334498
333521
333521
333521
333521
333521
332569
332569
332569
332569
332569
332569
332569
332569
332569
332569
331983
331983
331983
331983
331983
331928
331928
331928
331928
331928
331928
331928
331928
331928
331928
331928
331928
330409
328052
328052
328052
328052
328052
328052
328052
328052
328052
328052
328052
328052
328052
328052
328052
328052
328052
322418
322418
322418
322418
322418
322418
322400
322400
322400
322400
322400
322400
322400
322400
322400
322400
322400
322400
322214
322214
322214
321092
321092
321092
321092
321092
321092
321092
321092
321092
320410
320410
320410
320410
320410
320410
320410
320410
320410
320410
320410
320350
320350
320350
320350
320350
320350
320350
320350
320350
320350
318566
318566
318566
316024
316024
316024
316024
316024
316024
316024
316024
316024
316024
316024
316024
316024
316024
316024
316024
316024
316024
316024
313248
313248
313248
313248
313248
313248
313248
313248
313248
313248
313248
313248
313248
313248
313248
313248
313248
313248
313248
313104
313104
313104
313104
313104
313104
313104
313104
309913
309913
309913
309913
309913
309913
309913
309666
309666
309666
309666
309666
309666
309666
309666
309666
309666
309666
309666
309666
309666
307830
307830
307830
307830
307830
307830
307830
307830
307830
307830
307830
298504
298504
298504
298504
298504
298504
298504
298504
298504
294621
294621
294621
294621
294621
294621
294621
294621
294621
294621
294621
294621
292356
292356
292356
292356
292356
292356
292356
292356
292356
292356
292356
292356
289222
289222
289222
288115
288115
288115
287950
287950
287950
287950
287950
287950
287950
287950
287950
287950
287950
287950
287950
287950
287950
287950
285185
285185
285185
285185
285185
285185
285185
285185
285185
285185
285185
285185
283091
283091
283091
282480
282480
282480
282480
282480
282480
282480
282480
282480
282480
282480
282480
282480
282480
282480
282480
282480
282480
280328
280328
280328
280328
280328
280328
280328
280328
280328
277360
277230
277230
277230
277230
277230
277230
277230
277230
277230
277230
277230
277230
277230
277230
277230
273912
273912
273912
273912
273912
273912
273912
273912
273912
273912
273912
273912
272583
272583
271016
271016
271016
271016
271016
271016
271016
271016
271016
271016
271016
271016
269252
266089
266089
266089
266089
266089
266089
266089
266089
266089
266089
266089
266089
266089
265432
265432
265432
264463
264463
264226
264226
264226
264226
264226
263357
263357
263357
263357
263357
263357
260327
260327
260327
260327
260327
260327
260327
260327
260327
260327
260327
260327
260327
260327
260327
260327
260327
260327
260327
260112
260112
260112
260112
260112
257184
257184
257184
257184
257184
257184
257184
257184
257184
257184
257184
257184
257184
256991
255204
255204
255204
255204
255204
255204
255204
255204
255204
255204
255204
255204
255204
255204
255204
255204
255204
255204
255204
254585
254585
254585
254585
254585
254585
254585
254585
254585
254585
254585
254585
254585
251563
251563
251563
251563
251563
251563
251563
251563
251563
251563
251563
251563
251290
251290
251290
251290
251290
251290
251290
251290
251290
251290
251290
250270
250270
250270
250270
250270
250270
250270
250270
250270
250270
248891
248891
246247
246247
246247
246247
246247
246247
246247
246247
246247
246247
246247
246247
246247
242208
242208
242208
242208
242208
242208
242208
242208
242208
242208
242208
242208
242208
242208
242208
242208
242208
242208
240697
240697
240697
240697
240697
240697
240697
240697
240697
240697
240697
237507
237507
237507
237507
237507
237507
237507
237507
237507
237507
237507
237507
237507
237507
237507
237507
237507
237507
237443
237443
237443
237443
237443
237443
237443
237443
237443
237443
237443
237443
237443
237443
237443
236318
236318
236318
236318
236318
236318
236318
236318
236318
233871
233871
233871
233871
233871
233871
233871
233871
233871
233871
231161
231161
231161
231161
231161
231161
231161
231161
231161
231161
230094
230094
230094
230094
230094
230094
230094
230094
230094
230094
230094
230094
230094
230094
230094
230094
229748
229748
229748
229748
222073
222073
222073
222073
222073
222073
222073
222073
217152
217152
217152
216067
216067
216067
216067
216067
216067
216067
216067
216067
216067
216067
216067
216067
216067
216067
216067
209577
209577
209577
209577
209577
205554
205554
205554
205554
205554
199741
199741
199741
199741
199741
199741
199741
199741
199741
199741
199741
198938
198938
198938
198938
198938
198764
198764
198764
198764
198764
198764
198764
198764
198764
198764
198764
198091
198091
198091
198091
198091
198091
198091
198091
198091
198091
198091
198091
198091
198091
197919
197919
197919
197919
197512
197512
197512
197512
197512
197512
197512
197512
197512
197512
197512
197512
197512
197512
196778
196778
196778
196778
196778
196778
196778
196778
196778
196778
196778
196778
196778
196778
196778
196778
196778
196778
196307
196307
196307
196307
196307
196307
196307
196307
196307
196307
196307
196307
196307
196307
196307
196307
194194
194194
194194
194194
194194
194194
194194
194194
194194
194194
194194
189445
189445
189445
188918
188918
188918
188918
188918
188918
188918
188918
188918
188918
188918
188918
188918
188918
188918
188918
188918
186802
186802
186802
186802
184493
184493
184493
184493
184258
184258
184258
184258
184258
184258
184258
184258
184258
184258
184258
175466
175466
175466
175466
175466
175466
175466
175466
175466
175466
175466
174405
174405
174405
174405
174405
174405
174405
174405
174405
174405
174405
174405
174405
174405
174405
174405
171858
171858
171858
171858
171858
171858
171858
171858
171858
171858
171858
171858
170934
170934
170934
170934
170934
170934
170934
170934
170934
170934
170934
170934
170934
170934
170934
170934
170934
170934
169807
169807
169807
169807
169807
169807
165533
165533
165533
165533
165533
165533
165533
165533
165533
165533
165533
165533
165533
165533
165533
165533
165533
165533
165533
165533
165109
165109
165109
165109
165109
165109
165109
165109
165109
165109
165109
165109
165109
165109
165109
165109
161438
161438
161438
161438
161438
161438
161438
161438
161438
161438
161438
161438
161438
157213
157213
157213
157213
157213
157213
157213
157213
157213
157213
157213
157213
157213
157213
157213
157213
157213
157213
157213
154913
154913
154913
154913
154913
154913
154913
154913
154913
154913
154913
151450
151450
151450
151450
151450
151450
151450
151450
151450
151450
151450
150077
150077
150077
150077
150077
150077
150077
150077
150077
150077
150077
150077
150077
150077
150077
150077
150077
145015
145015
145015
145015
145015
145015
145015
145015
145015
145015
145015
145015
145015
145015
145015
145015
144405
144405
144405
144405
144405
144405
144405
144405
144405
144405
144136
144136
144136
144136
144136
143281
143281
143281
143281
143281
143281
143281
143281
143281
143131
143131
143131
143131
143131
143131
143131
143131
143131
143131
141676
141676
141676
141676
141676
141676
141676
141676
141676
141676
141676
141676
141676
141676
141676
141676
141676
141676
141676
140773
140773
140773
140773
140773
140459
140459
140459
140459
139779
139779
139779
139779
139779
139779
139779
139779
139779
139779
139779
139779
139779
139779
139779
139779
139779
139779
139779
138668
138668
138668
138668
138668
138668
138668
138668
138668
138668
138668
138668
138668
138668
138668
138668
138668
138668
138668
138216
138216
138216
138216
138216
138216
138216
138216
137964
137964
137964
137964
137964
137964
137964
137964
137964
137964
137964
137964
137964
137964
137964
137964
137964
136428
136428
136428
136428
136428
136428
136428
136428
135662
135662
135662
135662
135662
135662
135662
135662
135662
135662
135662
135662
135662
135662
133875
133875
133875
133875
133875
133875
133875
133875
133875
133875
133875
133875
133875
133875
133875
133875
133875
133875
133875
133875
130161
130161
130161
130161
130161
130161
130161
130161
130161
130161
130161
130161
127781
127096
127096
127096
127096
127096
127096
127096
127096
127096
127096
127096
127096
127096
127096
126550
126550
126550
126550
126550
126550
126550
126550
126550
126550
126550
126550
126550
126550
126550
126550
126550
126550
126229
126229
126229
126229
126229
126229
126229
126229
126229
126229
126229
126229
126229
126229
126229
126229
126229
126229
126229
124454
124454
124454
124454
124454
124454
124454
124454
124454
124454
124454
124454
124454
124454
124454
124454
124454
124454
124454
124454
124397
124397
124397
124397
124397
124397
124397
124397
124397
122908
122908
122908
122908
122908
122908
122908
122908
118966
118966
118966
118966
118966
118966
118966
118966
118966
118966
118966
118966
118966
118966
118709
118709
118709
118709
118709
118709
118709
118709
118709
118709
118709
118709
118709
118709
118709
118709
118436
118436
118436
118436
118436
118436
118436
118436
118436
118436
118436
118436
118436
118436
118436
114999
114999
114999
114999
114999
114999
114999
114999
114999
114999
114999
114896
112194
112194
112194
112194
112194
112194
112194
112194
111316
111316
111316
111316
111316
111316
111316
111316
111316
111316
111316
111316
111316
111316
111316
111316
111316
107488
107488
107488
107488
107488
107488
107396
107396
107396
107396
107396
107396
107396
107396
107396
107396
106999
106999
106999
106999
106999
106999
106999
106999
106999
106999
106999
106999
104587
104587
104587
104587
104587
104587
104587
104587
104587
104587
104587
104373
104373
104373
104373
104373
104373
104373
104373
104373
104373
104373
101824
101824
101824
101824
101824
101824
101824
101824
97554
97554
97554
97403
97403
94821
94821
94821
94821
94821
94821
94821
94821
94821
94821
94821
94821
94821
93961
93961
93961
93961
93961
93961
93961
93961
93961
93961
93961
93961
93961
92699
92699
92699
92699
92699
90548
90548
90548
90548
90548
90548
90548
90548
90548
90548
90548
90548
89667
89667
89667
89667
89667
89667
89667
89667
89667
89667
89667
89667
89667
89667
89667
89667
89667
89667
89667
89281
89281
89281
89281
89281
89281
89281
89281
89281
89281
89281
89281
89281
89281
89281
89281
84716
84716
84716
84716
84716
84716
84716
84716
84716
84716
84716
84716
84716
84716
84716
84716
84716
84716
84716
84716
80395
80395
80395
78726
78726
78726
78726
78726
78726
78726
78726
78726
78726
78726
78726
78726
78726
78726
78726
78726
78726
78726
78726
78225
78225
78225
78225
78225
78225
78225
78225
78225
78225
78225
78225
78225
78225
78225
78225
78225
78225
78225
76045
76045
76045
76045
76045
76045
76045
76045
76045
76045
76045
76045
76045
76045
76045
76045
75279
66965
66965
66965
66965
66965
66965
65731
65731
65731
65731
65731
65731
65731
65731
65731
65731
65731
65731
65731
62937
62937
62937
62937
62937
62937
62937
62398
62398
62398
62149
62149
62149
62149
62149
62149
62149
62149
61998
61998
61998
61998
61998
61998
61982
61982
61982
60320
60320
60320
60320
60320
60320
60320
60320
60320
60320
60320
60320
60320
60320
60320
60320
60320
60320
60320
60320
58066
58066
58066
58066
56296
56296
56296
56296
56296
46944
46944
46944
46944
46944
46944
46944
46944
46944
46944
46944
46944
46944
46944
46944
46944
46944
46944
46944
46944
46895
46895
46895
46895
46895
46895
46895
46895
46895
46895
46895
46895
46895
46895
46895
46895
46895
46386
46386
46386
46386
46386
46386
46386
46386
46386
46386
46386
46386
46386
46386
41621
41621
41621
41621
41621
41621
41621
41222
41222
41222
41222
41222
41222
41222
41222
41222
41222
41222
41222
41222
41222
41222
41222
38919
38919
38919
38919
38919
38919
38919
38919
38919
38919
38919
38919
38919
38919
38919
38919
38919
38919
38919
38919
34250
34250
34250
34250
34250
34250
34250
34250
34250
34250
34250
34250
34250
34250
34250
34250
34250
34250
34250
34111
34111
34111
34111
34111
34111
34111
34111
32593
32593
32593
32593
32593
32593
32593
32593
32593
32593
32593
32593
32593
30522
29911
29911
29911
29911
29911
29911
29911
29911
29911
29911
29911
29911
29911
29911
29911
29911
29911
29443
29443
29443
29443
29443
29443
29443
29443
26826
26826
26826
26826
26826
26826
26068
26068
26068
21073
21073
21073
21073
21073
20792
20792
20792
20792
20792
20792
20792
20792
20792
20792
20792
20792
20792
20792
20792
20792
20792
20792
20792
20792
18990
18990
18990
18990
18990
18990
18990
18990
18990
18990
18990
18990
18990
18990
18990
18990
18990
18990
18990
18990
11907
